words_hard_train/7402.qaiger
aag 120 16 0 1 104
2
4
12
14
18
20
30
32
44
46
58
60
72
74
86
88
240
6 2 4
8 3 5
10 7 9
16 12 15
22 18 21
24 17 23
26 19 20
28 25 27
34 31 32
36 30 33
38 35 37
40 28 38
42 41 37
48 45 46
50 44 47
52 49 51
54 43 52
56 55 51
62 59 60
64 58 61
66 63 65
68 57 66
70 69 65
76 73 74
78 72 75
80 77 79
82 71 80
84 83 79
90 87 88
92 86 89
94 91 93
96 85 94
98 97 93
100 11 99
102 10 98
104 101 103
106 21 89
108 106 75
110 33 61
112 110 47
114 108 112
116 114 14
118 104 117
120 15 21
122 120 33
124 122 47
126 124 61
128 126 75
130 129 89
132 128 88
134 131 133
136 84 95
138 137 97
140 134 138
142 123 46
144 143 125
146 29 39
148 147 41
150 121 32
152 151 123
154 18 20
156 155 121
158 16 23
160 157 159
162 153 160
164 149 163
166 152 161
168 165 167
170 144 169
172 145 168
174 42 53
176 175 55
178 173 177
180 171 179
182 125 60
184 183 127
186 56 67
188 187 69
190 185 188
192 181 191
194 184 189
196 193 195
198 70 81
200 199 83
202 127 74
204 203 129
206 200 205
208 197 207
210 201 204
212 209 211
214 141 213
216 135 139
218 215 217
220 114 5
222 115 4
224 221 223
226 218 224
228 118 227
230 105 116
232 226 230
234 229 233
236 219 225
238 236 231
240 234 239
i0 1 x2[7]
i1 2 y2[7]
i2 1 x2[0]
i3 2 y2[0]
i4 1 x2[1]
i5 2 y2[1]
i6 1 x2[2]
i7 2 y2[2]
i8 1 x2[3]
i9 2 y2[3]
i10 1 x2[4]
i11 2 y2[4]
i12 1 x2[5]
i13 2 y2[5]
i14 1 x2[6]
i15 2 y2[6]
o0 bv[0]
c
simplified
  <=
    subtract
      1
      2 y2
    add
      1 x2
      invert
        2 y2
