words_hard_train/7402.qaiger.qdimacs
p cnf 120 313
a 1 36 6 9 43 15 22 29 0
e 2 3 4 5 7 8 10 11 12 13 14 16 17 18 19 20 21 23 24 25 26 27 28 30 31 32 33 34 35 37 38 39 40 41 42 44 45 46 47 48 49 50 51 52 53 54 55 56 57 58 59 60 61 62 63 64 65 66 67 68 69 70 71 72 73 74 75 76 77 78 79 80 81 82 83 84 85 86 87 88 89 90 91 92 93 94 95 96 97 98 99 100 101 102 103 104 105 106 107 108 109 110 111 112 113 114 115 116 117 118 119 120 0
-1 -2 3 0
1 -3 0
2 -3 0
1 2 4 0
-1 -4 0
-2 -4 0
3 4 5 0
-3 -5 0
-4 -5 0
-6 7 8 0
6 -8 0
-7 -8 0
-9 10 11 0
9 -11 0
-10 -11 0
8 11 12 0
-8 -12 0
-11 -12 0
9 -10 13 0
-9 -13 0
10 -13 0
12 13 14 0
-12 -14 0
-13 -14 0
15 -16 17 0
-15 -17 0
16 -17 0
-15 16 18 0
15 -18 0
-16 -18 0
17 18 19 0
-17 -19 0
-18 -19 0
-14 -19 20 0
14 -20 0
19 -20 0
20 18 21 0
-20 -21 0
-18 -21 0
22 -23 24 0
-22 -24 0
23 -24 0
-22 23 25 0
22 -25 0
-23 -25 0
24 25 26 0
-24 -26 0
-25 -26 0
21 -26 27 0
-21 -27 0
26 -27 0
27 25 28 0
-27 -28 0
-25 -28 0
29 -30 31 0
-29 -31 0
30 -31 0
-29 30 32 0
29 -32 0
-30 -32 0
31 32 33 0
-31 -33 0
-32 -33 0
28 -33 34 0
-28 -34 0
33 -34 0
34 32 35 0
-34 -35 0
-32 -35 0
36 -37 38 0
-36 -38 0
37 -38 0
-36 37 39 0
36 -39 0
-37 -39 0
38 39 40 0
-38 -40 0
-39 -40 0
35 -40 41 0
-35 -41 0
40 -41 0
41 39 42 0
-41 -42 0
-39 -42 0
43 -44 45 0
-43 -45 0
44 -45 0
-43 44 46 0
43 -46 0
-44 -46 0
45 46 47 0
-45 -47 0
-46 -47 0
42 -47 48 0
-42 -48 0
47 -48 0
48 46 49 0
-48 -49 0
-46 -49 0
5 49 50 0
-5 -50 0
-49 -50 0
-5 -49 51 0
5 -51 0
49 -51 0
50 51 52 0
-50 -52 0
-51 -52 0
10 44 53 0
-10 -53 0
-44 -53 0
-53 37 54 0
53 -54 0
-37 -54 0
16 30 55 0
-16 -55 0
-30 -55 0
-55 23 56 0
55 -56 0
-23 -56 0
-54 -56 57 0
54 -57 0
56 -57 0
-57 -7 58 0
57 -58 0
7 -58 0
-52 58 59 0
52 -59 0
-58 -59 0
7 10 60 0
-7 -60 0
-10 -60 0
-60 16 61 0
60 -61 0
-16 -61 0
-61 23 62 0
61 -62 0
-23 -62 0
-62 30 63 0
62 -63 0
-30 -63 0
-63 37 64 0
63 -64 0
-37 -64 0
64 44 65 0
-64 -65 0
-44 -65 0
-64 -44 66 0
64 -66 0
44 -66 0
65 66 67 0
-65 -67 0
-66 -67 0
-42 47 68 0
42 -68 0
-47 -68 0
68 48 69 0
-68 -69 0
-48 -69 0
-67 -69 70 0
67 -70 0
69 -70 0
61 -23 71 0
-61 -71 0
23 -71 0
71 62 72 0
-71 -72 0
-62 -72 0
14 19 73 0
-14 -73 0
-19 -73 0
73 20 74 0
-73 -74 0
-20 -74 0
60 -16 75 0
-60 -75 0
16 -75 0
75 61 76 0
-75 -76 0
-61 -76 0
-9 -10 77 0
9 -77 0
10 -77 0
77 60 78 0
-77 -78 0
-60 -78 0
-8 11 79 0
8 -79 0
-11 -79 0
78 79 80 0
-78 -80 0
-79 -80 0
76 -80 81 0
-76 -81 0
80 -81 0
74 81 82 0
-74 -82 0
-81 -82 0
-76 80 83 0
76 -83 0
-80 -83 0
82 83 84 0
-82 -84 0
-83 -84 0
-72 84 85 0
72 -85 0
-84 -85 0
72 -84 86 0
-72 -86 0
84 -86 0
-21 26 87 0
21 -87 0
-26 -87 0
87 27 88 0
-87 -88 0
-27 -88 0
86 88 89 0
-86 -89 0
-88 -89 0
85 89 90 0
-85 -90 0
-89 -90 0
62 -30 91 0
-62 -91 0
30 -91 0
91 63 92 0
-91 -92 0
-63 -92 0
-28 33 93 0
28 -93 0
-33 -93 0
93 34 94 0
-93 -94 0
-34 -94 0
92 -94 95 0
-92 -95 0
94 -95 0
90 95 96 0
-90 -96 0
-95 -96 0
-92 94 97 0
92 -97 0
-94 -97 0
96 97 98 0
-96 -98 0
-97 -98 0
-35 40 99 0
35 -99 0
-40 -99 0
99 41 100 0
-99 -100 0
-41 -100 0
63 -37 101 0
-63 -101 0
37 -101 0
101 64 102 0
-101 -102 0
-64 -102 0
-100 102 103 0
100 -103 0
-102 -103 0
98 103 104 0
-98 -104 0
-103 -104 0
100 -102 105 0
-100 -105 0
102 -105 0
104 105 106 0
-104 -106 0
-105 -106 0
70 106 107 0
-70 -107 0
-106 -107 0
67 69 108 0
-67 -108 0
-69 -108 0
107 108 109 0
-107 -109 0
-108 -109 0
-57 2 110 0
57 -110 0
-2 -110 0
57 -2 111 0
-57 -111 0
2 -111 0
110 111 112 0
-110 -112 0
-111 -112 0
-109 -112 113 0
109 -113 0
112 -113 0
-59 113 114 0
59 -114 0
-113 -114 0
52 -58 115 0
-52 -115 0
58 -115 0
-113 -115 116 0
113 -116 0
115 -116 0
114 116 117 0
-114 -117 0
-116 -117 0
109 112 118 0
-109 -118 0
-112 -118 0
-118 115 119 0
118 -119 0
-115 -119 0
-117 119 120 0
117 -120 0
-119 -120 0
120 0
